\* Prop *\
Maximize
MAX_profit: 3 x + 2 y - z
Subject To
_C1: x + y <= 2
_C2: 3 x + 2 y - 10 z <= 0
_C3: x <= 10
_C4: y <= 20
_C5: z <= 15
hey_fed_constrain_2: - 4 x + y >= -2
låå1: x + y <= 2
Bounds
 x <= 3
 y <= 1
Binaries
z
End
